(set-info :source |printed by MathSAT|)
(declare-fun |.x{304}| () Int)
(declare-fun |.x{593}| () Int)
(declare-fun |.x{305}| () (Array Int Int))
(declare-fun |.x{594}| () (Array Int Int))
(declare-fun |.x{306}| () (Array Int Int))
(declare-fun |.x{595}| () (Array Int Int))
(declare-fun |.x{307}| () (Array Int (Array Int Int)))
(declare-fun |.x{596}| () (Array Int (Array Int Int)))
(declare-fun |.x{308}| () (Array Int (Array Int Int)))
(declare-fun |.x{597}| () (Array Int (Array Int Int)))
(declare-fun |.x{309}| () Int)
(declare-fun |.x{598}| () Int)
(declare-fun |.x{310}| () Int)
(declare-fun |.x{599}| () Int)
(declare-fun |.x{311}| () (Array Int Int))
(declare-fun |.x{600}| () (Array Int Int))
(declare-fun |.x{312}| () (Array Int Int))
(declare-fun |.x{601}| () (Array Int Int))
(declare-fun |.x{313}| () Int)
(declare-fun |.x{602}| () Int)
(declare-fun |.x{314}| () Int)
(declare-fun |.x{603}| () Int)
(declare-fun |.x{315}| () Int)
(declare-fun |.x{604}| () Int)
(declare-fun |.x{316}| () Int)
(declare-fun |.x{605}| () Int)
(declare-fun |.x{338}| () Int)
(declare-fun |.x{606}| () Int)
(declare-fun |.x{318}| () Int)
(declare-fun |.x{607}| () Int)
(declare-fun |.x{340}| () Int)
(declare-fun |.x{608}| () Int)
(declare-fun |.x{320}| () Int)
(declare-fun |.x{609}| () Int)
(declare-fun |.x{321}| () Int)
(declare-fun |.x{610}| () Int)
(declare-fun |.x{343}| () Int)
(declare-fun |.x{611}| () Int)
(declare-fun |.x{323}| () Int)
(declare-fun |.x{612}| () Int)
(declare-fun |.x{324}| () Bool)
(declare-fun |.x{571}| () Bool)
(declare-fun |.loc{4}| () Bool)
(declare-fun |.loc{7}| () Bool)
(declare-fun |.loc{5}| () Bool)
(declare-fun |.loc{8}| () Bool)
(declare-fun |.loc{6}| () Bool)
(declare-fun |.loc{9}| () Bool)
(declare-fun |.x{83}| () (Array Int Int))
(define-fun .def_50 () Bool (! |.loc{4}| :next |.loc{7}|))
(define-fun .def_69 () Bool (not .def_50))
(define-fun .def_52 () Bool (! |.loc{5}| :next |.loc{8}|))
(define-fun .def_65 () Bool (not .def_52))
(define-fun .def_265 () Bool (and .def_65 .def_69))
(define-fun .def_54 () Bool (! |.loc{6}| :next |.loc{9}|))
(define-fun .def_240 () Bool (not .def_54))
(define-fun .def_266 () Bool (and .def_240 .def_265))
(define-fun .def_28 () Int (! |.x{314}| :next |.x{603}|))
(define-fun .def_26 () Int (! |.x{313}| :next |.x{602}|))
(define-fun .def_259 () Bool (= .def_26 .def_28))
(define-fun .def_16 () (Array Int (Array Int Int)) (! |.x{308}| :next |.x{597}|))
(define-fun .def_14 () (Array Int (Array Int Int)) (! |.x{307}| :next |.x{596}|))
(define-fun .def_258 () Bool (= .def_14 .def_16))
(define-fun .def_260 () Bool (and .def_258 .def_259))
(define-fun .def_20 () Int (! |.x{310}| :next |.x{599}|))
(define-fun .def_18 () Int (! |.x{309}| :next |.x{598}|))
(define-fun .def_257 () Bool (= .def_18 .def_20))
(define-fun .def_261 () Bool (and .def_257 .def_260))
(define-fun .def_24 () (Array Int Int) (! |.x{312}| :next |.x{601}|))
(define-fun .def_22 () (Array Int Int) (! |.x{311}| :next |.x{600}|))
(define-fun .def_256 () Bool (= .def_22 .def_24))
(define-fun .def_262 () Bool (and .def_256 .def_261))
(define-fun .def_48 () Bool (! |.x{324}| :next |.x{571}|))
(define-fun .def_255 () Bool (not .def_48))
(define-fun .def_263 () Bool (and .def_255 .def_262))
(define-fun .def_12 () (Array Int Int) (! |.x{306}| :next |.x{595}|))
(define-fun .def_10 () (Array Int Int) (! |.x{305}| :next |.x{594}|))
(define-fun .def_254 () Bool (= .def_10 .def_12))
(define-fun .def_264 () Bool (and .def_254 .def_263))
(define-fun .def_267 () Bool (! (and .def_264 .def_266) :init true))
(define-fun .def_251 () Bool (= .def_28 |.x{603}|))
(define-fun .def_249 () Bool (= .def_24 |.x{601}|))
(define-fun .def_247 () Bool (= .def_20 |.x{599}|))
(define-fun .def_245 () Bool (= .def_16 |.x{597}|))
(define-fun .def_243 () Bool (= .def_12 |.x{595}|))
(define-fun .def_8 () Int (! |.x{304}| :next |.x{593}|))
(define-fun .def_241 () Bool (= .def_8 |.x{593}|))
(define-fun .def_242 () Bool (and .def_240 .def_241))
(define-fun .def_244 () Bool (and .def_242 .def_243))
(define-fun .def_246 () Bool (and .def_244 .def_245))
(define-fun .def_248 () Bool (and .def_246 .def_247))
(define-fun .def_250 () Bool (and .def_248 .def_249))
(define-fun .def_252 () Bool (and .def_250 .def_251))
(define-fun .def_36 () Int (! |.x{318}| :next |.x{607}|))
(define-fun .def_237 () Bool (= .def_36 |.x{607}|))
(define-fun .def_235 () Bool (= .def_26 |.x{602}|))
(define-fun .def_233 () Bool (= .def_22 |.x{600}|))
(define-fun .def_231 () Bool (= .def_18 |.x{598}|))
(define-fun .def_223 () Bool (not |.loc{7}|))
(define-fun .def_138 () Bool (= |.x{606}| 0))
(define-fun .def_211 () Bool (or .def_48 .def_138))
(define-fun .def_212 () Bool (and .def_69 .def_211))
(define-fun .def_119 () Bool (= |.x{608}| 1023))
(define-fun .def_120 () Int (ite .def_119 1 0))
(define-fun .def_121 () Bool (= |.x{611}| .def_120))
(define-fun .def_116 () Bool (= |.x{606}| |.x{611}|))
(define-fun .def_46 () Int (! |.x{323}| :next |.x{612}|))
(define-fun .def_112 () Int (+ .def_46 4092))
(define-fun .def_30 () Int (! |.x{315}| :next |.x{604}|))
(define-fun .def_113 () (Array Int Int) (select .def_14 .def_30))
(define-fun .def_114 () Int (select .def_113 .def_112))
(define-fun .def_115 () Bool (= |.x{608}| .def_114))
(define-fun .def_117 () Bool (and .def_115 .def_116))
(define-fun .def_122 () Bool (and .def_117 .def_121))
(define-fun .def_123 () Bool (or .def_48 .def_122))
(define-fun .def_213 () Bool (and .def_123 .def_212))
(define-fun .def_125 () Bool (= .def_10 |.x{594}|))
(define-fun .def_214 () Bool (and .def_125 .def_213))
(define-fun .def_215 () Bool (and |.x{571}| .def_214))
(define-fun .def_129 () Bool (= .def_30 |.x{604}|))
(define-fun .def_216 () Bool (and .def_129 .def_215))
(define-fun .def_32 () Int (! |.x{316}| :next |.x{605}|))
(define-fun .def_82 () Bool (= .def_32 |.x{605}|))
(define-fun .def_217 () Bool (and .def_82 .def_216))
(define-fun .def_136 () Bool (= .def_46 |.x{612}|))
(define-fun .def_218 () Bool (and .def_136 .def_217))
(define-fun .def_207 () (Array Int Int) (store .def_10 .def_30 0))
(define-fun .def_208 () Bool (= |.x{594}| .def_207))
(define-fun .def_209 () Bool (or .def_48 .def_208))
(define-fun .def_201 () Bool (= |.x{605}| |.x{607}|))
(define-fun .def_202 () Bool (or |.x{571}| .def_201))
(define-fun .def_203 () Bool (and .def_50 .def_202))
(define-fun .def_72 () Bool (= .def_48 |.x{571}|))
(define-fun .def_204 () Bool (and .def_72 .def_203))
(define-fun .def_44 () Int (! |.x{343}| :next |.x{611}|))
(define-fun .def_74 () Bool (= .def_44 |.x{611}|))
(define-fun .def_205 () Bool (and .def_74 .def_204))
(define-fun .def_34 () Int (! |.x{338}| :next |.x{606}|))
(define-fun .def_76 () Bool (= .def_34 |.x{606}|))
(define-fun .def_206 () Bool (and .def_76 .def_205))
(define-fun .def_210 () Bool (and .def_206 .def_209))
(define-fun .def_219 () Bool (or .def_210 .def_218))
(define-fun .def_199 () Bool (and .def_52 |.loc{9}|))
(define-fun .def_78 () Bool (not |.loc{8}|))
(define-fun .def_200 () Bool (and .def_78 .def_199))
(define-fun .def_220 () Bool (and .def_200 .def_219))
(define-fun .def_38 () Int (! |.x{340}| :next |.x{608}|))
(define-fun .def_153 () Bool (= .def_38 |.x{608}|))
(define-fun .def_66 () Bool (not |.loc{9}|))
(define-fun .def_67 () Bool (and .def_65 .def_66))
(define-fun .def_154 () Bool (and .def_67 .def_153))
(define-fun .def_155 () Bool (and .def_50 .def_154))
(define-fun .def_184 () Bool (and |.loc{8}| .def_155))
(define-fun .def_185 () Bool (and .def_72 .def_184))
(define-fun .def_186 () Bool (and .def_74 .def_185))
(define-fun .def_187 () Bool (and .def_76 .def_186))
(define-fun .def_194 () Bool (and .def_48 .def_187))
(define-fun .def_195 () Bool (and .def_125 .def_194))
(define-fun .def_196 () Bool (and .def_129 .def_195))
(define-fun .def_197 () Bool (and .def_82 .def_196))
(define-fun .def_198 () Bool (and .def_136 .def_197))
(define-fun .def_221 () Bool (or .def_198 .def_220))
(define-fun .def_40 () Int (! |.x{320}| :next |.x{609}|))
(define-fun .def_168 () Bool (<= 1024 .def_40))
(define-fun .def_190 () Bool (or .def_48 .def_168))
(define-fun .def_188 () Bool (and .def_125 .def_187))
(define-fun .def_189 () Bool (and .def_129 .def_188))
(define-fun .def_191 () Bool (and .def_189 .def_190))
(define-fun .def_192 () Bool (and .def_82 .def_191))
(define-fun .def_193 () Bool (and .def_136 .def_192))
(define-fun .def_222 () Bool (or .def_193 .def_221))
(define-fun .def_224 () Bool (and .def_222 .def_223))
(define-fun .def_80 () Bool (= .def_14 |.x{596}|))
(define-fun .def_225 () Bool (and .def_80 .def_224))
(define-fun .def_132 () Bool (= .def_40 |.x{609}|))
(define-fun .def_226 () Bool (and .def_132 .def_225))
(define-fun .def_42 () Int (! |.x{321}| :next |.x{610}|))
(define-fun .def_134 () Bool (= .def_42 |.x{610}|))
(define-fun .def_227 () Bool (and .def_134 .def_226))
(define-fun .def_171 () Int (* 4 .def_40))
(define-fun .def_173 () Int (+ .def_171 .def_46))
(define-fun .def_174 () (Array Int Int) (store .def_113 .def_173 .def_40))
(define-fun .def_175 () (Array Int (Array Int Int)) (store .def_14 .def_30 .def_174))
(define-fun .def_176 () Bool (= |.x{596}| .def_175))
(define-fun .def_169 () Bool (not .def_168))
(define-fun .def_177 () Bool (and .def_169 .def_176))
(define-fun .def_178 () Bool (or .def_48 .def_177))
(define-fun .def_162 () Int (* (- 1) |.x{609}|))
(define-fun .def_163 () Int (+ .def_40 .def_162))
(define-fun .def_164 () Bool (= .def_163 (- 1)))
(define-fun .def_165 () Bool (or |.x{571}| .def_164))
(define-fun .def_156 () Bool (and |.loc{7}| .def_155))
(define-fun .def_157 () Bool (and .def_72 .def_156))
(define-fun .def_158 () Bool (and .def_74 .def_157))
(define-fun .def_159 () Bool (and .def_76 .def_158))
(define-fun .def_160 () Bool (and .def_78 .def_159))
(define-fun .def_166 () Bool (and .def_160 .def_165))
(define-fun .def_179 () Bool (and .def_166 .def_178))
(define-fun .def_180 () Bool (and .def_125 .def_179))
(define-fun .def_181 () Bool (and .def_129 .def_180))
(define-fun .def_182 () Bool (and .def_82 .def_181))
(define-fun .def_183 () Bool (and .def_136 .def_182))
(define-fun .def_228 () Bool (or .def_183 .def_227))
(define-fun .def_139 () Bool (not .def_138))
(define-fun .def_140 () Bool (or |.x{571}| .def_139))
(define-fun .def_106 () Bool (and .def_52 .def_66))
(define-fun .def_107 () Bool (and .def_69 .def_106))
(define-fun .def_141 () Bool (and .def_107 .def_140))
(define-fun .def_142 () Bool (and |.loc{7}| .def_141))
(define-fun .def_143 () Bool (and |.loc{8}| .def_142))
(define-fun .def_144 () Bool (and .def_72 .def_143))
(define-fun .def_145 () Bool (and .def_123 .def_144))
(define-fun .def_146 () Bool (and .def_125 .def_145))
(define-fun .def_147 () Bool (and .def_80 .def_146))
(define-fun .def_148 () Bool (and .def_129 .def_147))
(define-fun .def_149 () Bool (and .def_82 .def_148))
(define-fun .def_150 () Bool (and .def_132 .def_149))
(define-fun .def_151 () Bool (and .def_134 .def_150))
(define-fun .def_152 () Bool (and .def_136 .def_151))
(define-fun .def_229 () Bool (or .def_152 .def_228))
(define-fun .def_108 () Bool (and |.loc{7}| .def_107))
(define-fun .def_109 () Bool (and |.loc{8}| .def_108))
(define-fun .def_110 () Bool (and .def_48 .def_109))
(define-fun .def_124 () Bool (and .def_110 .def_123))
(define-fun .def_126 () Bool (and .def_124 .def_125))
(define-fun .def_127 () Bool (and .def_80 .def_126))
(define-fun .def_128 () Bool (and |.x{571}| .def_127))
(define-fun .def_130 () Bool (and .def_128 .def_129))
(define-fun .def_131 () Bool (and .def_82 .def_130))
(define-fun .def_133 () Bool (and .def_131 .def_132))
(define-fun .def_135 () Bool (and .def_133 .def_134))
(define-fun .def_137 () Bool (and .def_135 .def_136))
(define-fun .def_230 () Bool (or .def_137 .def_229))
(define-fun .def_232 () Bool (and .def_230 .def_231))
(define-fun .def_234 () Bool (and .def_232 .def_233))
(define-fun .def_236 () Bool (and .def_234 .def_235))
(define-fun .def_238 () Bool (and .def_236 .def_237))
(define-fun .def_100 () (Array Int Int) (store .def_22 |.x{604}| 8192))
(define-fun .def_101 () Bool (= |.x{600}| .def_100))
(define-fun .def_94 () Bool (<= |.x{593}| |.x{604}|))
(define-fun .def_95 () Bool (not .def_94))
(define-fun .def_91 () Bool (= |.x{604}| 0))
(define-fun .def_92 () Bool (not .def_91))
(define-fun .def_89 () (Array Int Int) (store |.x{83}| |.x{604}| 1))
(define-fun .def_90 () Bool (= |.x{594}| .def_89))
(define-fun .def_93 () Bool (and .def_90 .def_92))
(define-fun .def_96 () Bool (and .def_93 .def_95))
(define-fun .def_86 () Int (select |.x{83}| |.x{604}|))
(define-fun .def_87 () Bool (= .def_86 0))
(define-fun .def_97 () Bool (and .def_87 .def_96))
(define-fun .def_85 () Bool (= |.x{609}| 0))
(define-fun .def_98 () Bool (and .def_85 .def_97))
(define-fun .def_102 () Bool (and .def_98 .def_101))
(define-fun .def_84 () Bool (= |.x{612}| 0))
(define-fun .def_103 () Bool (and .def_84 .def_102))
(define-fun .def_104 () Bool (or |.x{571}| .def_103))
(define-fun .def_61 () Bool (= |.x{602}| 0))
(define-fun .def_60 () Bool (= |.x{598}| 0))
(define-fun .def_62 () Bool (and .def_60 .def_61))
(define-fun .def_57 () (Array Int Int) (store .def_10 0 0))
(define-fun .def_59 () Bool (= .def_57 |.x{83}|))
(define-fun .def_63 () Bool (and .def_59 .def_62))
(define-fun .def_64 () Bool (or .def_48 .def_63))
(define-fun .def_68 () Bool (and .def_64 .def_67))
(define-fun .def_70 () Bool (and .def_68 .def_69))
(define-fun .def_71 () Bool (and |.loc{7}| .def_70))
(define-fun .def_73 () Bool (and .def_71 .def_72))
(define-fun .def_75 () Bool (and .def_73 .def_74))
(define-fun .def_77 () Bool (and .def_75 .def_76))
(define-fun .def_79 () Bool (and .def_77 .def_78))
(define-fun .def_81 () Bool (and .def_79 .def_80))
(define-fun .def_83 () Bool (and .def_81 .def_82))
(define-fun .def_105 () Bool (and .def_83 .def_104))
(define-fun .def_239 () Bool (or .def_105 .def_238))
(define-fun .def_253 () Bool (! (and .def_239 .def_252) :trans true))
(define-fun .def_268 () Bool (and .def_54 .def_265))
(define-fun .def_269 () Bool (and .def_48 .def_268))
(define-fun .def_270 () Bool (! (not .def_269) :invar-property 0))
(assert true)
